plate_width = 40;
n_circuits = 20;
n_shapes = 38;
widths = [3, 3, 3, 3, 3, 3, 3, 3, 3, 3, 3, 4, 4, 4, 5, 5, 5, 5, 5, 22];
lengths = [3, 4, 5, 6, 7, 8, 9, 10, 12, 16, 40, 4, 14, 22, 3, 4, 8, 12, 13, 40];
sizes = [| 3, 3 | 3, 4 | 4, 3 | 3, 5 | 5, 3 | 3, 6 | 6, 3 | 3, 7 | 7, 3 | 3, 8 | 8, 3 | 3, 9 | 9, 3 | 3, 10 | 10, 3 | 3, 12 | 12, 3 | 3, 16 | 16, 3 | 3, 40 | 40, 3 | 4, 4 | 4, 14 | 14, 4 | 4, 22 | 22, 4 | 5, 3 | 3, 5 | 5, 4 | 4, 5 | 5, 8 | 8, 5 | 5, 12 | 12, 5 | 5, 13 | 13, 5 | 22, 40 | 40, 22 |];
offsets = [| 0, 0 | 0, 0 | 0, 0 | 0, 0 | 0, 0 | 0, 0 | 0, 0 | 0, 0 | 0, 0 | 0, 0 | 0, 0 | 0, 0 | 0, 0 | 0, 0 | 0, 0 | 0, 0 | 0, 0 | 0, 0 | 0, 0 | 0, 0 | 0, 0 | 0, 0 | 0, 0 | 0, 0 | 0, 0 | 0, 0 | 0, 0 | 0, 0 | 0, 0 | 0, 0 | 0, 0 | 0, 0 | 0, 0 | 0, 0 | 0, 0 | 0, 0 | 0, 0 | 0, 0 |];
shapes = [{1}, {2}, {3}, {4}, {5}, {6}, {7}, {8}, {9}, {10}, {11}, {12}, {13}, {14}, {15}, {16}, {17}, {18}, {19}, {20}, {21}, {22}, {23}, {24}, {25}, {26}, {27}, {28}, {29}, {30}, {31}, {32}, {33}, {34}, {35}, {36}, {37}, {38}];
valid_shapes = [{1}, {2, 3}, {4, 5}, {6, 7}, {8, 9}, {10, 11}, {12, 13}, {14, 15}, {16, 17}, {18, 19}, {20, 21}, {22}, {24, 23}, {25, 26}, {27, 28}, {29, 30}, {32, 31}, {33, 34}, {35, 36}, {37, 38}];